
Gurobi 11.0.3 (win64) logging started Thu Sep 26 18:53:30 2024

Set parameter LogFile to value "C:\Users\ealvarezq\Desktop\K.Investments_per_hour\IEEE118_ByStages_nc170/openStarNet_IEEE118_ByStages_nc170.log"
Set parameter Method to value 2
Set parameter MIPFocus to value 1
Set parameter Presolve to value 2
Set parameter RINS to value 100
Set parameter MIPGap to value 0.01
Set parameter Threads to value 24
Set parameter TimeLimit to value 259200
Set parameter IterationLimit to value 760000000
Gurobi Optimizer version 11.0.3 build v11.0.3rc0 (win64 - Windows Server 2019.0 (17763.2))

CPU model: AMD Ryzen Threadripper PRO 3955WX 16-Cores, instruction set [SSE2|AVX|AVX2]
Thread count: 16 physical cores, 32 logical processors, using up to 24 threads

Optimize a model with 240383 rows, 173246 columns and 611718 nonzeros
Model fingerprint: 0x73b80c71
Variable types: 173212 continuous, 34 integer (34 binary)
Coefficient statistics:
  Matrix range     [5e-04, 9e+03]
  Objective range  [1e+00, 1e+00]
  Bounds range     [1e-04, 6e+00]
  RHS range        [1e-04, 6e+00]
Presolve removed 163078 rows and 80549 columns
Presolve time: 2.19s
Presolved: 77305 rows, 92697 columns, 281340 nonzeros
Variable types: 92663 continuous, 34 integer (34 binary)
Root relaxation presolved: 77305 rows, 92697 columns, 281340 nonzeros

Root barrier log...

Ordering time: 0.04s

Barrier statistics:
 Dense cols : 34
 AA' NZ     : 3.523e+05
 Factor NZ  : 1.395e+06 (roughly 80 MB of memory)
 Factor Ops : 3.076e+07 (less than 1 second per iteration)
 Threads    : 23

                  Objective                Residual
Iter       Primal          Dual         Primal    Dual     Compl     Time
   0   8.25073548e+06 -1.06846843e+09  1.43e+01 1.17e+03  2.06e+04     3s
   1   2.86331075e+06 -4.02872626e+08  4.64e+00 2.94e-08  5.38e+03     4s
   2   4.49591284e+05 -1.79096442e+08  3.45e-01 1.32e-08  1.00e+03     4s
   3   2.81107219e+05 -2.56068727e+07  4.53e-02 5.08e-09  1.25e+02     4s
   4   1.98543041e+05 -3.23800885e+06  5.03e-03 5.43e-10  1.56e+01     4s
   5   1.13044991e+05 -1.16725621e+06  1.41e-03 1.97e-10  5.75e+00     4s
   6   6.34421056e+04 -3.06812077e+05  5.84e-04 4.65e-11  1.66e+00     4s
   7   3.17823008e+04 -8.94870133e+04  2.36e-04 3.37e-11  5.43e-01     4s
   8   1.11783900e+04 -3.89716098e+04  5.50e-05 5.42e-12  2.25e-01     4s
   9   8.40054223e+03 -2.24553366e+04  3.61e-05 3.21e-12  1.38e-01     4s
  10   5.95733612e+03 -9.43453852e+03  2.19e-05 1.77e-12  6.89e-02     4s
  11   4.57351477e+03 -4.57833944e+03  1.46e-05 1.95e-12  4.10e-02     4s
  12   3.74138067e+03 -1.79126573e+03  1.07e-05 3.18e-11  2.48e-02     4s
  13   2.72229495e+03 -3.40529494e+02  5.92e-06 1.18e-11  1.37e-02     4s
  14   2.21314160e+03  5.84676330e+02  3.76e-06 1.76e-11  7.29e-03     4s
  15   1.91512900e+03  7.47867802e+02  2.45e-06 1.29e-11  5.23e-03     4s
  16   1.75835485e+03  9.72911442e+02  1.77e-06 1.84e-12  3.52e-03     4s
  17   1.62740752e+03  1.06196839e+03  1.21e-06 1.92e-12  2.53e-03     4s
  18   1.54105346e+03  1.12835337e+03  8.51e-07 4.99e-12  1.85e-03     4s
  19   1.48761419e+03  1.20746798e+03  6.39e-07 5.35e-11  1.25e-03     4s
  20   1.42490448e+03  1.26527384e+03  3.83e-07 4.26e-11  7.15e-04     4s
  21   1.39189658e+03  1.28684753e+03  2.51e-07 4.68e-11  4.70e-04     4s
  22   1.37134631e+03  1.30151439e+03  1.66e-07 3.19e-11  3.13e-04     4s
  23   1.35414222e+03  1.31127310e+03  9.56e-08 4.17e-11  1.92e-04     4s
  24   1.34446891e+03  1.31960771e+03  5.65e-08 2.61e-12  1.11e-04     4s
  25   1.33907159e+03  1.32260305e+03  3.52e-08 1.81e-11  7.37e-05     4s
  26   1.33467786e+03  1.32547854e+03  1.76e-08 2.01e-12  4.12e-05     4s
  27   1.33194695e+03  1.32875033e+03  7.30e-09 3.64e-12  1.43e-05     5s
  28   1.33109578e+03  1.32924563e+03  1.13e-08 1.87e-12  8.28e-06     5s
  29   1.33046922e+03  1.32949341e+03  1.03e-08 1.40e-12  4.37e-06     5s
  30   1.33035545e+03  1.32960797e+03  8.20e-09 1.87e-12  3.35e-06     5s
  31   1.33015858e+03  1.32982802e+03  4.73e-09 2.41e-12  1.48e-06     5s
  32   1.32996615e+03  1.32992472e+03  1.52e-09 2.98e-12  1.86e-07     5s
  33   1.32994538e+03  1.32993783e+03  1.05e-09 3.91e-12  3.38e-08     5s
  34   1.32994118e+03  1.32994001e+03  1.59e-10 2.05e-12  5.24e-09     5s
  35   1.32994039e+03  1.32994029e+03  9.43e-11 3.70e-12  4.50e-10     5s
  36   1.32994031e+03  1.32994031e+03  1.64e-10 2.40e-12  4.13e-11     5s

Barrier solved model in 36 iterations and 5.04 seconds (3.50 work units)
Optimal objective 1.32994031e+03


Root crossover log...

   16878 DPushes remaining with DInf 2.0478310e-04                 5s
       0 DPushes remaining with DInf 1.1817370e-04                 6s

    1563 PPushes remaining with PInf 0.0000000e+00                 6s
       0 PPushes remaining with PInf 0.0000000e+00                 6s

  Push phase complete: Pinf 0.0000000e+00, Dinf 7.6043716e-05      6s


Root simplex log...

Iteration    Objective       Primal Inf.    Dual Inf.      Time
    5950    1.3299403e+03   0.000000e+00   7.604364e-05      6s
    5952    1.3299403e+03   0.000000e+00   0.000000e+00      6s
    5952    1.3299403e+03   0.000000e+00   0.000000e+00      6s

Root relaxation: objective 1.329940e+03, 5952 iterations, 3.56 seconds (2.26 work units)

    Nodes    |    Current Node    |     Objective Bounds      |     Work
 Expl Unexpl |  Obj  Depth IntInf | Incumbent    BestBd   Gap | It/Node Time

     0     0 1329.94031    0   22          - 1329.94031      -     -    7s
H    0     0                    5683.4070565 1329.94031  76.6%     -   18s
H    0     0                    1705.9272101 1329.94031  22.0%     -   25s
     0     0 1368.16930    0   24 1705.92721 1368.16930  19.8%     -   47s
     0     0 1368.24399    0   24 1705.92721 1368.24399  19.8%     -   49s
     0     0 1368.24399    0   24 1705.92721 1368.24399  19.8%     -   49s
     0     0 1372.54904    0   23 1705.92721 1372.54904  19.5%     -   57s
     0     0 1372.56093    0   23 1705.92721 1372.56093  19.5%     -   58s
     0     0 1373.35795    0   23 1705.92721 1373.35795  19.5%     -   61s
     0     0 1373.42471    0   22 1705.92721 1373.42471  19.5%     -   63s
     0     0 1373.42554    0   22 1705.92721 1373.42554  19.5%     -   64s
     0     0 1373.89427    0   21 1705.92721 1373.89427  19.5%     -   66s
     0     0 1373.90073    0   21 1705.92721 1373.90073  19.5%     -   67s
     0     0 1374.05063    0   21 1705.92721 1374.05063  19.5%     -   72s
H    0     0                    1546.5421894 1374.05063  11.2%     -  894s
     0     2 1374.05063    0   21 1546.54219 1374.05063  11.2%     -  899s
     1     4 1496.63200    1   22 1546.54219 1374.12499  11.1%  7742  919s
     3     6     cutoff    2      1546.54219 1412.24045  8.68%  5560  940s
     7     8 1440.08841    3   20 1546.54219 1421.17974  8.11%  4159  975s
    13    12 1451.55545    4   19 1546.54219 1440.09412  6.88%  5449 1027s
    21    12     cutoff    5      1546.54219 1451.59869  6.14%  6189 1072s
    33    20 1466.44330    6   19 1546.54219 1459.48085  5.63%  5593 1080s
    45    20 1482.87926    7   17 1546.54219 1466.48504  5.18%  4551 1119s
    65    22     cutoff    8      1546.54219 1481.28312  4.22%  3813 1178s
    85    22 1501.12336    9   16 1546.54219 1496.02246  3.27%  3872 1259s
   107    24     cutoff   10      1546.54219 1499.57325  3.04%  4338 1319s
   129    22 1505.68289   11   14 1546.54219 1501.56248  2.91%  3706 1327s
   157    20 1519.40262   12   13 1546.54219 1519.40262  1.75%  3249 1335s
   185    22 1530.94004   13   13 1546.54219 1519.40820  1.75%  2838 1344s
   212    19     cutoff   14      1546.54219 1527.61038  1.22%  2555 1347s

Cutting planes:
  Implied bound: 50
  MIR: 1091
  RLT: 8
  Relax-and-lift: 1

Explored 243 nodes (564477 simplex iterations) in 1348.57 seconds (931.70 work units)
Thread count was 24 (of 32 available processors)

Solution count 3: 1546.54 1705.93 5683.41 

Optimal solution found (tolerance 1.00e-02)
Best objective 1.546542189437e+03, best bound 1.533450648515e+03, gap 0.8465%

Gurobi 11.0.3 (win64) logging started Thu Sep 26 19:19:02 2024

Set parameter LogFile to value "C:\Users\ealvarezq\Desktop\K.Investments_per_hour\IEEE118_ByStages_nc170/openStarNet_IEEE118_ByStages_nc170.log"
Set parameter Method to value 2
Set parameter MIPFocus to value 1
Set parameter Presolve to value 2
Set parameter RINS to value 100
Set parameter MIPGap to value 0.01
Set parameter Threads to value 24
Set parameter TimeLimit to value 259200
Set parameter IterationLimit to value 760000000
Gurobi Optimizer version 11.0.3 build v11.0.3rc0 (win64 - Windows Server 2019.0 (17763.2))

CPU model: AMD Ryzen Threadripper PRO 3955WX 16-Cores, instruction set [SSE2|AVX|AVX2]
Thread count: 16 physical cores, 32 logical processors, using up to 24 threads

Optimize a model with 240383 rows, 173212 columns and 588564 nonzeros
Model fingerprint: 0xb9ea87a2
Coefficient statistics:
  Matrix range     [5e-04, 9e+03]
  Objective range  [1e+00, 1e+00]
  Bounds range     [1e-04, 6e+00]
  RHS range        [1e-04, 3e+02]
Presolve removed 178993 rows and 75538 columns
Presolve time: 0.60s
Presolved: 61390 rows, 97844 columns, 239314 nonzeros

Ordering time: 0.04s

Barrier statistics:
 AA' NZ     : 2.026e+05
 Factor NZ  : 8.058e+05 (roughly 70 MB of memory)
 Factor Ops : 1.164e+07 (less than 1 second per iteration)
 Threads    : 24

                  Objective                Residual
Iter       Primal          Dual         Primal    Dual     Compl     Time
   0   8.82861901e+06 -6.10089937e+08  4.88e+01 1.57e+02  7.86e+03     1s
   1   1.39512489e+06 -1.44300103e+08  6.37e+00 1.02e-12  1.14e+03     1s
   2   4.02190344e+05 -2.64002237e+07  9.81e-01 1.02e-12  1.70e+02     1s
   3   1.94589217e+05 -3.92607374e+06  4.60e-02 7.39e-13  2.01e+01     1s
   4   8.59086796e+04 -7.84418992e+05  7.18e-03 3.64e-12  4.10e+00     1s
   5   3.94994404e+04 -2.19069060e+05  2.49e-03 1.48e-12  1.21e+00     1s
   6   1.99140757e+04 -6.76486683e+04  9.95e-04 6.82e-13  4.10e-01     1s
   7   9.91413192e+03 -2.00161604e+04  3.38e-04 3.41e-13  1.40e-01     1s
   8   7.27288308e+03 -9.66212449e+03  2.15e-04 2.68e-13  7.91e-02     1s
   9   5.13055913e+03 -2.49366236e+03  1.28e-04 3.24e-13  3.56e-02     1s
  10   3.82747327e+03 -1.02738421e+02  8.06e-05 4.45e-13  1.84e-02     2s
  11   2.70619073e+03  5.44008850e+02  4.02e-05 3.08e-13  1.01e-02     2s
  12   2.39672102e+03  8.92960591e+02  2.91e-05 1.61e-13  7.03e-03     2s
  13   2.12090502e+03  1.16966210e+03  1.94e-05 1.75e-13  4.44e-03     2s
  14   1.93466803e+03  1.28465905e+03  1.29e-05 2.00e-13  3.04e-03     2s
  15   1.80103996e+03  1.38331827e+03  8.33e-06 2.69e-13  1.95e-03     2s
  16   1.66888972e+03  1.45738851e+03  3.99e-06 1.53e-13  9.88e-04     2s
  17   1.63160467e+03  1.49614617e+03  2.75e-06 2.90e-13  6.33e-04     2s
  18   1.58683691e+03  1.52421589e+03  1.24e-06 2.90e-13  2.93e-04     2s
  19   1.57075019e+03  1.53203694e+03  7.38e-07 2.69e-13  1.81e-04     2s
  20   1.55460530e+03  1.53954299e+03  2.37e-07 2.25e-13  7.04e-05     2s
  21   1.54932431e+03  1.54458147e+03  7.97e-08 4.81e-13  2.22e-05     2s
  22   1.54747150e+03  1.54622813e+03  2.53e-08 2.90e-13  5.81e-06     2s
  23   1.54672922e+03  1.54644215e+03  4.88e-09 1.88e-13  1.34e-06     2s
  24   1.54657647e+03  1.54653161e+03  8.54e-10 2.74e-13  2.10e-07     2s
  25   1.54654649e+03  1.54654077e+03  1.82e-09 2.14e-13  2.67e-08     2s
  26   1.54654330e+03  1.54654155e+03  4.50e-10 1.49e-13  8.21e-09     2s
  27   1.54654219e+03  1.54654209e+03  7.24e-09 3.01e-13  4.67e-10     2s
  28   1.54654219e+03  1.54654219e+03  1.52e-09 3.09e-13  4.52e-12     2s

Barrier solved model in 28 iterations and 2.06 seconds (1.17 work units)
Optimal objective 1.54654219e+03

Crossover log...

   17596 DPushes remaining with DInf 0.0000000e+00                 2s
       0 DPushes remaining with DInf 0.0000000e+00                 2s

     502 PPushes remaining with PInf 0.0000000e+00                 2s
       0 PPushes remaining with PInf 0.0000000e+00                 2s

  Push phase complete: Pinf 0.0000000e+00, Dinf 3.7488782e-12      2s

Iteration    Objective       Primal Inf.    Dual Inf.      Time
    4616    1.5465422e+03   0.000000e+00   0.000000e+00      3s

Solved in 4616 iterations and 2.68 seconds (1.45 work units)
Optimal objective  1.546542189e+03
